Minimize
    34 x0 + 54 x1 + 69 x2 + 80 x3 + 128 x4 + 182 x5
Subject To
    c0: -95 x0 - 55 x1 + 26 x2 - 72 x3 + 123 x4 + 116 x5 >= -18
    c1: 42 x0 - 105 x1 - 12 x2 + 32 x3 + 79 x4 + 55 x5 >= 141
    c2: 67 x0 - 100 x1 + 9 x2 + 87 x3 - 77 x4 - 2 x5 >= 86
    c3: 49 x0 + 114 x1 + 97 x2 - 44 x3 - 118 x4 - 60 x5 >= -16
    c4: -117 x0 - 123 x1 - 10 x2 - 128 x3 + 81 x4 + 38 x5 >= -174
    c5: -109 x0 + 0 x1 - 33 x2 + 83 x3 - 14 x4 + 67 x5 >= -73
    c6: -47 x0 - 7 x1 + 70 x2 + 13 x3 + 21 x4 + 48 x5 >= 57
    c7: -74 x0 + 58 x1 - 5 x2 + 42 x3 + 92 x4 - 46 x5 >= 55
    c8: 15 x0 - 37 x1 - 27 x2 + 111 x3 - 106 x4 + 24 x5 >= -7
    c9: -53 x0 - 85 x1 + 24 x2 + 58 x3 - 88 x4 - 78 x5 >= -59
    c10: 20 x0 - 68 x1 + 88 x2 - 84 x3 - 58 x4 + 83 x5 >= -34
    c11: -84 x0 - 85 x1 - 4 x2 + 37 x3 + 38 x4 - 74 x5 >= -13
    c12: 80 x0 - 30 x1 + 70 x2 - 43 x3 - 11 x4 + 37 x5 >= 96
    c13: -81 x0 + 47 x1 - 107 x2 + 55 x3 - 81 x4 - 117 x5 >= -214
    c14: -8 x0 - 26 x1 - 110 x2 - 42 x3 + 55 x4 - 114 x5 >= -105
    c15: 91 x0 - 39 x1 + 78 x2 + 76 x3 - 66 x4 + 52 x5 >= 179
    c16: -26 x0 - 92 x1 + 30 x2 + 8 x3 - 74 x4 - 128 x5 >= -62
    c17: -25 x0 + 91 x1 - 66 x2 - 93 x3 + 49 x4 + 11 x5 >= -135
    c18: -92 x0 + 85 x1 + 106 x2 + 120 x3 + 78 x4 - 73 x5 >= 212
    c19: 11 x0 - 15 x1 + 65 x2 - 67 x3 + 1 x4 + 18 x5 >= 10
    c20: -4 x0 + 72 x1 - 18 x2 - 34 x3 + 4 x4 + 113 x5 >= -52
    c21: 71 x0 + 88 x1 + 54 x2 + 51 x3 - 3 x4 - 50 x5 >= 173
    c22: -52 x0 - 83 x1 + 75 x2 + 21 x3 - 5 x4 - 31 x5 >= 39
    c23: 114 x0 - 62 x1 + 34 x2 + 35 x3 - 102 x4 + 123 x5 >= 81
    c24: -92 x0 + 102 x1 - 32 x2 + 108 x3 - 122 x4 + 105 x5 >= -138
    c25: 55 x0 + 2 x1 + 77 x2 + 78 x3 - 14 x4 + 10 x5 >= 196
    c26: -64 x0 - 58 x1 - 89 x2 - 117 x3 + 20 x4 + 83 x5 >= -250
    c27: -92 x0 + 9 x1 - 35 x2 - 112 x3 + 0 x4 + 4 x5 >= -239
    c28: -109 x0 - 106 x1 + 81 x2 - 84 x3 - 38 x4 - 83 x5 >= -150
    c29: 74 x0 + 25 x1 + 45 x2 - 121 x3 + 81 x4 + 61 x5 >= 79
    c30: 74 x0 - 50 x1 + 7 x2 - 77 x3 + 84 x4 + 19 x5 >= 88
    c31: -120 x0 + 50 x1 + 112 x2 + 65 x3 + 8 x4 + 14 x5 >= 65
Binary
    x0 x1 x2 x3 x4 x5
End
